70
21
0 21 22 23 26 27 31 33 34 38 39 41 42 44 45 52 53 54 55 56 57 59 61 63 64 68 69
1 22 23 25 26 29 31 35 36 37 38 39 41 42 44 45 48 49 52 53 57 61 62 63 64 65 66 67 69
2 21 22 23 24 26 31 33 36 37 39 41 42 44 45 47 49 50 52 53 56 57 60 63 64 65 66 69
3 22 23 25 29 31 34 36 37 39 44 45 50 51 52 53 55 57 58 61 62 63 64 66 69
4 21 22 23 24 25 26 29 31 34 36 38 39 41 42 44 45 46 50 51 52 57 58 61 63 64 65 66 69
5 21 23 25 26 29 31 34 36 37 38 39 40 41 45 47 48 49 50 51 53 54 57 58 62 63 64 69
6 21 25 26 27 29 30 31 34 36 38 39 44 48 51 52 56 57 58 63 64 65 66
7 21 22 23 25 26 29 34 36 37 39 41 42 43 50 51 52 54 55 58 62 64 65 66 67
8 21 22 24 26 29 31 34 36 42 47 50 53 58 61 63 64 65 66 69
9 22 23 25 27 31 32 39 41 45 46 51 52 56 57 58 62 64
10 26 31 32 33 36 38 41 44 45 47 48 50 52 54 55 56 57 59 65 66
11 22 25 29 32 36 37 39 42 44 45 47 49 56 59 61 62 63 69
12 21 22 23 38 42 44 46 47 49 50 52 58 59 61 62 65 66 67
13 21 22 27 28 32 37 38 45 50 53 55 56 57 58 62 63 64 65 66
14 27 33 36 38 39 41 46 50 53 54 58 66
15 22 33 34 36 38 42 44 47 48 53 55 59 60 61
16 23 24 28 41 56 63 64
17 29 34 41 44 45 48 51 53 57
18 35 44 46
19 35 39 40 45 48 66
20
